YPt3_mp-2403_primitive\(1\1\1)
1.0
        5.8411998749         0.0000000000         0.0000000000
        2.9205999374         5.0586274802         0.0000000000
        0.0000000000         0.0000000000        22.1539993286
    Y   Pt
    4   12
Direct
     0.000000000         0.000000000         0.090279996
     0.666670024         0.666670024         0.197919995
     0.333330005         0.333330005         0.305559993
     0.000000000         0.000000000         0.413199991
     0.500000000         0.500000000         0.090279996
     0.166669995         0.166669995         0.197919995
     0.833329976         0.833329976         0.305559993
     0.500000000         0.500000000         0.413199991
     0.000000000         0.500000000         0.090279996
     0.666670024         0.166669995         0.197919995
     0.333330005         0.833329976         0.305559993
     0.000000000         0.500000000         0.413199991
     0.500000000         0.000000000         0.090279996
     0.166669995         0.666670024         0.197919995
     0.833329976         0.333330005         0.305559993
     0.500000000         0.000000000         0.413199991
