K-Spacing Value to Generate K-Mesh: 0.030
0
Gamma
  11  11   1
0.0  0.0  0.0
