NiO_mp-19009_conventional_standard\(1\0\0)
1.0
        2.9816000462         0.0000000000         0.0000000000
        0.0000000000         2.9816000462         0.0000000000
        0.0000000000         0.0000000000        25.5415000916
   Ni    O
    6    6
Direct
     0.000000000         0.000000000         0.160850003
     0.000000000         0.000000000         0.325940013
     0.000000000         0.000000000         0.491030008
     0.500000000         0.500000000         0.078299999
     0.500000000         0.500000000         0.243389994
     0.500000000         0.500000000         0.408479989
     0.000000000         0.000000000         0.078299999
     0.000000000         0.000000000         0.243389994
     0.000000000         0.000000000         0.408479989
     0.500000000         0.500000000         0.160850003
     0.500000000         0.500000000         0.325940013
     0.500000000         0.500000000         0.491030008
