Ni_mp-23_primitive\(1\1\1)
1.0
        4.2937002182         0.0000000000         0.0000000000
        1.4312318800         4.0481399271         0.0000000000
        0.0000000000         0.0000000000        21.1973991394
   Ni
   10
Direct
     0.000000000         0.000000000         0.152820006   F F F
     0.000000000         0.000000000         0.269769996   T T T
     0.000000000         0.000000000         0.386720002   T T T
     0.500000000         0.000000000         0.211300001   F F F
     0.500000000         0.000000000         0.328240007   T T T
     0.000000000         0.500000000         0.211300001   F F F
     0.000000000         0.500000000         0.328240007   T T T
     0.500000000         0.500000000         0.152820006   F F F
     0.500000000         0.500000000         0.269769996   T T T
     0.500000000         0.500000000         0.386720002   T T T
