#Generated by Multiwfn
&GLOBAL
  PROJECT pt3y
  PRINT_LEVEL LOW
  RUN_TYPE ENERGY
&END GLOBAL

&FORCE_EVAL
  METHOD Quickstep
  &SUBSYS
    &CELL
      A     5.84119987     0.00000000     0.00000000
      B     2.92059994     5.05862748     0.00000000
      C     0.00000000     0.00000000    22.15399933
      PERIODIC XY #Direction of applied PBC (geometry aspect)
    &END CELL
    &COORD
      Y        0.00000000    0.00000000    2.00006297
      Y        5.84122929    3.37243530    4.38471944
      Y        2.92057078    1.68619232    6.76937588
      Y        0.00000000    0.00000000    9.15403232
      Pt       4.38089991    2.52931374    2.00006297
      Pt       1.46032913    0.84312142    4.38471944
      Pt       7.30147043    4.21550592    6.76937588
      Pt       4.38089991    2.52931374    9.15403232
      Pt       1.46029997    2.52931374    2.00006297
      Pt       4.38092924    0.84312142    4.38471944
      Pt       4.38087066    4.21550592    6.76937588
      Pt       1.46029997    2.52931374    9.15403232
      Pt       2.92059994    0.00000000    2.00006297
      Pt       2.92062918    3.37243530    4.38471944
      Pt       5.84117054    1.68619232    6.76937588
      Pt       2.92059994    0.00000000    9.15403232
    &END COORD
    &KIND Y    
      ELEMENT Y 
      BASIS_SET DZVP-MOLOPT-SR-GTH
      POTENTIAL GTH-PBE
    &END KIND
    &KIND Pt   
      ELEMENT Pt
      BASIS_SET DZVP-MOLOPT-SR-GTH
      POTENTIAL GTH-PBE
    &END KIND
  &END SUBSYS

  &DFT
    BASIS_SET_FILE_NAME  BASIS_MOLOPT
    POTENTIAL_FILE_NAME  POTENTIAL
#   WFN_RESTART_FILE_NAME pt3y-RESTART.wfn
    CHARGE    0 #Net charge
    MULTIPLICITY    1 #Spin multiplicity
    &QS
      EPS_DEFAULT 1E-10 #This is default. Set all EPS_xxx to values such that the energy will be correct up to this value
    &END QS
    &POISSON
      PERIODIC XY #Direction(s) of PBC for calculating electrostatics
      PSOLVER ANALYTIC #The way to solve Poisson equation
    &END POISSON
    &XC
      &XC_FUNCTIONAL PBE
      &END XC_FUNCTIONAL
    &END XC
    &MGRID
      CUTOFF 350
      REL_CUTOFF 50
    &END MGRID
    &SCF
      MAX_SCF 128
      EPS_SCF 5.0E-06 #Convergence threshold of density matrix during SCF
#     SCF_GUESS RESTART #Use wavefunction from WFN_RESTART_FILE_NAME file as initial guess
      &DIAGONALIZATION
        ALGORITHM STANDARD #Algorithm for diagonalization. DAVIDSON is faster for large systems
      &END DIAGONALIZATION
      &MIXING #How to mix old and new density matrices
        METHOD BROYDEN_MIXING #PULAY_MIXING is also a good alternative
        ALPHA 0.4 #Default. Mixing 40% of new density matrix with the old one
        NBROYDEN 8 #Default is 4. Number of previous steps stored for the actual mixing scheme
      &END MIXING
      &SMEAR
        METHOD FERMI_DIRAC
        ELECTRONIC_TEMPERATURE 300 #Electronic temperature of Fermi-Dirac smearing in K
      &END SMEAR
      ADDED_MOS 30 #Number of virtual MOs to be solved
    &END SCF
    &PRINT
      &MO_CUBES
        STRIDE 1 #Stride of exported cube file
        NHOMO -1
        NLUMO -1
      &END MO_CUBES
    &END PRINT
  &END DFT
&END FORCE_EVAL
